c preprocessed version of dimacs_inithx.i.2-pp, 214 vertices, 4144 edges
p td 214 4144
1 0
43 0
47 0
49 0
2 0
6 0
8 0
10 0
12 0
14 0
16 0
18 0
20 0
22 0
24 0
26 0
28 0
30 0
32 0
34 0
36 0
38 0
48 0
50 0
101 0
40 0
68 0
74 0
0 46
0 42
0 45
0 44
0 58
0 56
0 57
0 55
0 61
0 54
0 63
0 64
0 62
0 59
0 60
0 67
0 88
0 73
0 72
0 69
0 70
0 71
0 97
0 98
0 128
0 129
0 130
0 132
0 131
0 99
0 135
0 133
0 136
0 139
0 137
0 138
0 134
0 140
0 141
0 127
0 124
0 126
0 125
0 100
0 75
0 79
0 85
0 78
0 80
0 83
0 81
0 76
0 84
0 82
0 86
0 87
0 77
0 96
0 89
0 93
0 90
0 91
0 92
0 94
0 95
0 66
0 65
0 51
0 52
0 53
0 102
2 1
6 1
8 1
10 1
12 1
14 1
16 1
18 1
20 1
22 1
24 1
26 1
28 1
30 1
32 1
34 1
36 1
38 1
68 1
1 88
1 73
1 69
1 46
1 42
1 67
1 94
1 95
2 3
2 5
2 7
2 9
2 11
2 13
2 15
2 17
2 19
2 21
2 23
2 25
2 27
2 29
2 31
2 33
2 35
2 37
2 39
2 114
2 116
2 117
2 115
2 41
2 43
2 47
2 49
2 118
2 119
2 120
2 121
2 123
2 122
2 125
2 126
2 124
2 127
2 51
2 52
2 128
2 131
2 53
2 132
2 130
2 129
2 141
2 45
2 6
2 8
2 12
2 14
2 16
2 18
2 20
2 22
2 24
2 26
2 28
2 30
2 34
2 36
2 38
2 48
2 50
2 110
2 101
2 40
2 68
2 74
2 54
2 65
2 66
2 67
2 96
2 78
2 97
2 98
2 99
2 100
2 42
2 104
2 103
2 46
2 102
2 190
2 193
2 192
2 195
2 194
2 191
2 203
2 202
2 197
2 201
2 189
2 200
2 199
2 196
2 198
2 188
2 187
2 186
2 169
2 168
2 171
2 172
2 170
2 175
2 177
2 176
2 174
2 178
2 173
2 182
2 181
2 180
2 167
2 179
2 153
2 155
2 154
2 156
2 157
2 158
2 107
2 159
2 161
2 163
2 165
2 164
2 162
2 160
2 108
2 109
2 113
2 112
2 111
2 106
2 105
2 166
2 140
2 134
2 138
2 137
2 139
2 136
2 133
2 135
2 71
2 70
2 69
2 72
2 73
2 88
2 95
2 94
2 92
2 91
2 90
2 93
2 89
2 75
2 77
2 87
2 86
2 82
2 84
2 76
2 81
2 83
2 80
2 85
2 79
2 44
2 57
2 56
2 58
2 60
2 59
2 62
2 64
2 63
2 61
2 55
2 149
2 151
2 152
2 150
2 142
2 184
2 185
2 183
4 3
6 3
8 3
10 3
12 3
14 3
16 3
18 3
20 3
22 3
24 3
26 3
28 3
30 3
32 3
34 3
36 3
38 3
3 7
3 5
4 5
4 7
4 9
4 11
4 13
4 15
4 17
4 21
4 23
4 25
4 27
4 29
4 31
4 33
4 35
4 37
4 114
4 116
4 117
4 115
4 118
4 119
4 44
4 58
4 56
4 57
4 55
4 61
4 63
4 64
4 62
4 59
4 60
4 188
4 156
4 154
4 155
4 153
4 88
4 73
4 72
4 69
4 70
4 71
4 128
4 129
4 130
4 132
4 131
4 135
4 133
4 136
4 139
4 137
4 138
4 134
4 140
4 141
4 127
4 124
4 126
4 125
4 122
4 123
4 121
4 120
4 166
4 75
4 79
4 85
4 80
4 83
4 81
4 76
4 84
4 82
4 86
4 87
4 77
4 89
4 93
4 90
4 91
4 92
4 94
4 95
4 169
4 170
4 172
4 171
4 168
4 173
4 178
4 174
4 176
4 177
4 175
4 179
4 167
4 180
4 181
4 182
4 186
4 187
4 190
4 191
4 194
4 195
4 192
4 193
4 198
4 196
4 199
4 200
4 189
4 201
4 197
4 202
4 203
6 5
8 5
10 5
12 5
14 5
16 5
18 5
20 5
22 5
24 5
26 5
28 5
30 5
32 5
34 5
36 5
38 5
5 9
5 7
6 7
6 9
6 11
6 13
6 15
6 17
6 19
6 21
6 23
6 25
6 27
6 29
6 31
6 33
6 35
6 37
6 39
6 114
6 116
6 117
6 115
6 41
6 43
6 47
6 49
6 118
6 119
6 120
6 121
6 123
6 122
6 125
6 126
6 124
6 127
6 51
6 52
6 128
6 131
6 53
6 132
6 130
6 129
6 141
6 45
6 140
6 134
6 138
6 137
6 139
6 136
6 133
6 135
6 54
6 65
6 71
6 70
6 69
6 72
6 73
6 88
6 66
6 67
6 95
6 94
6 8
6 12
6 14
6 16
6 18
6 20
6 22
6 24
6 26
6 28
6 30
6 34
6 36
6 38
6 48
6 50
6 110
6 101
6 40
6 68
6 74
6 96
6 78
6 97
6 98
6 99
6 100
6 42
6 104
6 103
6 46
6 102
6 193
6 192
6 195
6 194
6 191
6 203
6 202
6 197
6 201
6 189
6 200
6 199
6 196
6 198
6 188
6 187
6 186
6 169
6 168
6 171
6 172
6 170
6 175
6 177
6 176
6 174
6 178
6 173
6 182
6 181
6 180
6 167
6 179
6 153
6 155
6 154
6 156
6 157
6 158
6 107
6 159
6 161
6 163
6 165
6 164
6 162
6 160
6 108
6 109
6 113
6 112
6 111
6 106
6 105
6 166
6 92
6 91
6 90
6 93
6 89
6 75
6 77
6 87
6 86
6 82
6 84
6 76
6 81
6 83
6 80
6 85
6 79
6 44
6 57
6 56
6 58
6 60
6 59
6 62
6 64
6 63
6 61
6 55
8 7
10 7
12 7
14 7
16 7
18 7
20 7
22 7
24 7
26 7
28 7
30 7
32 7
34 7
36 7
38 7
7 9
8 9
8 11
8 13
8 15
8 17
8 19
8 21
8 23
8 25
8 27
8 29
8 31
8 33
8 35
8 37
8 39
8 114
8 116
8 117
8 115
8 41
8 43
8 47
8 49
8 118
8 119
8 120
8 121
8 123
8 122
8 125
8 126
8 124
8 127
8 51
8 52
8 128
8 131
8 53
8 132
8 130
8 129
8 141
8 45
8 140
8 134
8 138
8 137
8 139
8 136
8 133
8 135
8 54
8 65
8 71
8 70
8 69
8 72
8 73
8 88
8 66
8 67
8 95
8 94
8 92
8 91
8 90
8 93
8 89
8 96
8 75
8 78
8 77
8 87
8 86
8 82
8 84
8 97
8 76
8 81
8 83
8 80
8 85
8 79
8 98
8 99
8 44
8 57
8 56
8 58
8 100
8 60
8 59
8 62
8 64
8 63
8 61
8 55
8 42
8 104
8 103
8 46
8 102
8 12
8 14
8 16
8 18
8 20
8 22
8 24
8 26
8 28
8 30
8 34
8 36
8 38
8 48
8 50
8 110
8 101
8 40
8 68
8 74
8 203
8 202
8 197
8 201
8 189
8 200
8 199
8 196
8 198
8 188
8 187
8 186
8 169
8 168
8 171
8 172
8 170
8 175
8 177
8 176
8 174
8 178
8 173
8 182
8 181
8 180
8 167
8 179
8 153
8 155
8 154
8 156
8 157
8 158
8 107
8 159
8 161
8 163
8 165
8 164
8 162
8 160
8 108
8 109
8 113
8 112
8 111
8 106
8 105
8 166
10 9
12 9
14 9
16 9
18 9
20 9
22 9
24 9
26 9
28 9
30 9
32 9
34 9
36 9
38 9
9 11
9 117
9 116
9 114
9 37
9 35
9 33
9 31
9 29
9 27
9 25
9 23
9 21
9 17
9 15
10 11
10 13
10 15
10 17
10 19
10 21
10 23
10 25
10 27
10 29
10 31
10 33
10 35
10 37
10 39
10 114
10 116
10 117
10 115
10 41
10 43
10 47
10 49
10 118
10 119
10 120
10 121
10 123
10 122
10 125
10 126
10 124
10 127
10 51
10 143
10 52
10 128
10 131
10 53
10 132
10 130
10 129
10 141
10 45
10 140
10 134
10 138
10 137
10 139
10 136
10 133
10 135
10 54
10 65
10 71
10 70
10 69
10 72
10 73
10 88
10 66
10 67
10 95
10 94
10 92
10 91
10 90
10 93
10 89
10 96
10 75
10 78
10 77
10 87
10 86
10 82
10 84
10 97
10 76
10 81
10 83
10 80
10 85
10 79
10 145
10 98
10 99
10 44
10 57
10 56
10 58
10 100
10 60
10 59
10 62
10 64
10 63
10 61
10 55
10 146
10 142
10 150
10 152
10 147
10 151
10 42
10 104
10 103
10 148
10 46
10 149
10 102
10 32
10 144
10 183
10 185
10 184
10 101
10 188
10 156
10 154
10 155
10 153
10 68
10 74
10 40
10 166
10 158
10 157
10 105
10 107
10 106
10 112
10 113
10 109
10 108
10 111
10 110
10 160
10 162
10 164
10 165
10 163
10 161
10 159
10 169
10 170
10 172
10 171
10 168
10 173
10 178
10 174
10 176
10 177
10 175
10 179
10 167
10 180
10 181
10 182
10 186
10 187
10 198
10 196
10 199
10 200
10 189
10 201
10 197
10 202
10 203
10 48
10 50
12 11
14 11
16 11
18 11
20 11
22 11
24 11
26 11
28 11
30 11
32 11
34 11
36 11
38 11
11 17
11 15
12 13
12 15
12 17
12 19
12 21
12 23
12 25
12 27
12 29
12 31
12 33
12 35
12 37
12 39
12 114
12 116
12 117
12 115
12 41
12 43
12 47
12 49
12 118
12 119
12 120
12 121
12 123
12 122
12 125
12 126
12 124
12 127
12 51
12 52
12 128
12 131
12 53
12 132
12 130
12 129
12 141
12 45
12 140
12 134
12 138
12 137
12 139
12 136
12 133
12 135
12 54
12 65
12 71
12 70
12 69
12 72
12 73
12 88
12 66
12 67
12 95
12 94
12 92
12 91
12 90
12 93
12 89
12 96
12 75
12 78
12 77
12 87
12 86
12 82
12 84
12 97
12 76
12 81
12 83
12 80
12 85
12 79
12 98
12 99
12 44
12 57
12 56
12 58
12 100
12 60
12 59
12 62
12 64
12 63
12 61
12 55
12 42
12 104
12 103
12 46
12 102
12 14
12 16
12 18
12 20
12 22
12 24
12 26
12 28
12 30
12 34
12 36
12 38
12 48
12 50
12 110
12 101
12 40
12 68
12 74
12 203
12 202
12 197
12 201
12 189
12 200
12 199
12 196
12 198
12 188
12 187
12 186
12 169
12 168
12 171
12 172
12 170
12 175
12 177
12 176
12 174
12 178
12 173
12 182
12 181
12 180
12 167
12 179
12 153
12 155
12 154
12 156
12 157
12 158
12 107
12 159
12 161
12 163
12 165
12 164
12 162
12 160
12 108
12 109
12 113
12 112
12 111
12 106
12 105
12 166
12 184
14 13
16 13
18 13
20 13
22 13
24 13
26 13
28 13
30 13
32 13
34 13
36 13
38 13
14 15
14 17
14 19
14 21
14 23
14 25
14 27
14 29
14 31
14 33
14 35
14 37
14 39
14 114
14 116
14 117
14 115
14 41
14 43
14 47
14 49
14 118
14 119
14 120
14 121
14 123
14 122
14 125
14 126
14 124
14 127
14 51
14 52
14 128
14 131
14 53
14 132
14 130
14 129
14 141
14 45
14 140
14 134
14 138
14 137
14 139
14 136
14 133
14 135
14 54
14 65
14 71
14 70
14 69
14 72
14 73
14 88
14 66
14 67
14 95
14 94
14 92
14 91
14 90
14 93
14 89
14 96
14 75
14 78
14 77
14 87
14 86
14 82
14 84
14 97
14 76
14 81
14 83
14 80
14 85
14 79
14 98
14 99
14 44
14 57
14 56
14 58
14 100
14 60
14 59
14 62
14 64
14 63
14 61
14 55
14 42
14 104
14 103
14 46
14 102
14 16
14 18
14 20
14 22
14 24
14 26
14 28
14 30
14 34
14 36
14 38
14 48
14 50
14 110
14 101
14 40
14 68
14 74
14 203
14 202
14 197
14 201
14 189
14 200
14 199
14 196
14 198
14 188
14 187
14 186
14 169
14 168
14 171
14 172
14 170
14 175
14 177
14 176
14 174
14 178
14 173
14 182
14 181
14 180
14 167
14 179
14 153
14 155
14 154
14 156
14 157
14 158
14 107
14 159
14 161
14 163
14 165
14 164
14 162
14 160
14 108
14 109
14 113
14 112
14 111
14 106
14 105
14 166
14 185
14 184
16 15
18 15
20 15
22 15
24 15
26 15
28 15
30 15
32 15
34 15
36 15
38 15
16 17
16 19
16 21
16 23
16 25
16 27
16 29
16 31
16 33
16 35
16 37
16 39
16 114
16 116
16 117
16 115
16 41
16 43
16 47
16 49
16 118
16 119
16 120
16 121
16 123
16 122
16 125
16 126
16 124
16 127
16 51
16 52
16 128
16 131
16 53
16 132
16 130
16 129
16 141
16 45
16 140
16 134
16 138
16 137
16 139
16 136
16 133
16 135
16 54
16 65
16 71
16 70
16 69
16 72
16 73
16 88
16 66
16 67
16 95
16 94
16 92
16 91
16 90
16 93
16 89
16 96
16 75
16 78
16 77
16 87
16 86
16 82
16 84
16 97
16 76
16 81
16 83
16 80
16 85
16 79
16 98
16 99
16 44
16 57
16 56
16 58
16 100
16 60
16 59
16 62
16 64
16 63
16 61
16 55
16 42
16 104
16 103
16 46
16 102
16 18
16 20
16 22
16 24
16 26
16 28
16 30
16 34
16 36
16 38
16 48
16 50
16 110
16 101
16 40
16 68
16 74
16 189
16 200
16 199
16 196
16 198
16 188
16 187
16 186
16 169
16 168
16 171
16 172
16 170
16 175
16 177
16 176
16 174
16 178
16 173
16 182
16 181
16 180
16 167
16 179
16 153
16 155
16 154
16 156
16 157
16 158
16 107
16 159
16 161
16 163
16 165
16 164
16 162
16 160
16 108
16 109
16 113
16 112
16 111
16 106
16 105
16 166
16 183
16 185
16 184
18 17
20 17
22 17
24 17
26 17
28 17
30 17
32 17
34 17
36 17
38 17
18 19
18 21
18 23
18 25
18 27
18 29
18 31
18 33
18 35
18 37
18 39
18 114
18 116
18 117
18 115
18 41
18 43
18 47
18 49
18 118
18 119
18 120
18 121
18 123
18 122
18 125
18 126
18 124
18 127
18 51
18 52
18 128
18 131
18 53
18 132
18 130
18 129
18 141
18 45
18 140
18 134
18 138
18 137
18 139
18 136
18 133
18 135
18 54
18 65
18 71
18 70
18 69
18 72
18 73
18 88
18 66
18 67
18 95
18 94
18 92
18 91
18 90
18 93
18 89
18 96
18 75
18 78
18 77
18 87
18 86
18 82
18 84
18 97
18 76
18 81
18 83
18 80
18 85
18 79
18 98
18 99
18 44
18 57
18 56
18 58
18 100
18 60
18 59
18 62
18 64
18 63
18 61
18 55
18 42
18 104
18 103
18 46
18 102
18 20
18 22
18 24
18 26
18 28
18 30
18 34
18 36
18 38
18 48
18 50
18 110
18 101
18 40
18 68
18 74
18 188
18 187
18 186
18 169
18 168
18 171
18 172
18 170
18 175
18 177
18 176
18 174
18 178
18 173
18 182
18 181
18 180
18 167
18 179
18 153
18 155
18 154
18 156
18 157
18 158
18 107
18 159
18 161
18 163
18 165
18 164
18 162
18 160
18 108
18 109
18 113
18 112
18 111
18 106
18 105
18 166
18 183
18 185
18 184
20 19
22 19
24 19
26 19
28 19
30 19
34 19
36 19
38 19
110 19
20 21
20 23
20 25
20 27
20 29
20 31
20 33
20 35
20 37
20 39
20 114
20 116
20 117
20 115
20 41
20 43
20 47
20 49
20 118
20 119
20 120
20 121
20 123
20 122
20 125
20 126
20 124
20 127
20 51
20 52
20 128
20 131
20 53
20 132
20 130
20 129
20 141
20 45
20 140
20 134
20 138
20 137
20 139
20 136
20 133
20 135
20 54
20 65
20 71
20 70
20 69
20 72
20 73
20 88
20 66
20 67
20 95
20 94
20 92
20 91
20 90
20 93
20 89
20 96
20 75
20 78
20 77
20 87
20 86
20 82
20 84
20 97
20 76
20 81
20 83
20 80
20 85
20 79
20 98
20 99
20 44
20 57
20 56
20 58
20 100
20 60
20 59
20 62
20 64
20 63
20 61
20 55
20 142
20 42
20 104
20 103
20 46
20 102
20 22
20 24
20 26
20 28
20 30
20 34
20 36
20 38
20 48
20 50
20 110
20 101
20 40
20 68
20 74
20 188
20 187
20 186
20 169
20 168
20 171
20 172
20 170
20 175
20 177
20 176
20 174
20 178
20 173
20 182
20 181
20 180
20 167
20 179
20 153
20 155
20 154
20 156
20 157
20 158
20 107
20 159
20 161
20 163
20 165
20 164
20 162
20 160
20 108
20 109
20 113
20 112
20 111
20 106
20 105
20 166
20 183
20 185
20 184
22 21
24 21
26 21
28 21
30 21
32 21
34 21
36 21
38 21
21 115
21 117
21 116
21 114
21 37
21 35
21 33
21 31
21 29
21 27
21 25
21 23
22 23
22 25
22 27
22 29
22 31
22 33
22 35
22 37
22 39
22 114
22 116
22 117
22 115
22 41
22 43
22 47
22 49
22 118
22 119
22 120
22 121
22 123
22 122
22 125
22 126
22 124
22 127
22 51
22 52
22 128
22 131
22 53
22 132
22 130
22 129
22 141
22 45
22 140
22 134
22 138
22 137
22 139
22 136
22 133
22 135
22 54
22 65
22 71
22 70
22 69
22 72
22 73
22 88
22 66
22 67
22 95
22 94
22 92
22 91
22 90
22 93
22 89
22 96
22 75
22 78
22 77
22 87
22 86
22 82
22 84
22 97
22 76
22 81
22 83
22 80
22 85
22 79
22 98
22 99
22 44
22 57
22 56
22 58
22 100
22 60
22 59
22 62
22 64
22 63
22 61
22 55
22 142
22 42
22 104
22 103
22 46
22 102
22 24
22 26
22 28
22 30
22 34
22 36
22 38
22 48
22 50
22 110
22 101
22 40
22 68
22 74
22 186
22 169
22 168
22 171
22 172
22 170
22 175
22 177
22 176
22 174
22 178
22 173
22 182
22 181
22 180
22 167
22 179
22 153
22 155
22 154
22 156
22 157
22 158
22 107
22 159
22 161
22 163
22 165
22 164
22 162
22 160
22 108
22 109
22 113
22 112
22 111
22 106
22 105
22 166
22 183
22 185
22 184
24 23
26 23
28 23
30 23
32 23
34 23
36 23
38 23
23 33
23 31
23 29
23 27
23 25
24 25
24 27
24 29
24 31
24 33
24 35
24 37
24 39
24 114
24 116
24 117
24 115
24 41
24 43
24 47
24 49
24 118
24 119
24 120
24 121
24 123
24 122
24 125
24 126
24 124
24 127
24 51
24 52
24 128
24 131
24 53
24 132
24 130
24 129
24 141
24 45
24 140
24 134
24 138
24 137
24 139
24 136
24 133
24 135
24 54
24 65
24 71
24 70
24 69
24 72
24 73
24 88
24 66
24 67
24 95
24 94
24 92
24 91
24 90
24 93
24 89
24 96
24 75
24 78
24 77
24 87
24 86
24 82
24 84
24 97
24 76
24 81
24 83
24 80
24 85
24 79
24 98
24 99
24 44
24 57
24 56
24 58
24 100
24 60
24 59
24 62
24 64
24 63
24 61
24 55
24 142
24 150
24 42
24 104
24 103
24 46
24 102
24 26
24 28
24 30
24 34
24 36
24 38
24 48
24 50
24 110
24 101
24 40
24 68
24 74
24 169
24 168
24 171
24 172
24 170
24 175
24 177
24 176
24 174
24 178
24 173
24 182
24 181
24 180
24 167
24 179
24 153
24 155
24 154
24 156
24 157
24 158
24 107
24 159
24 161
24 163
24 165
24 164
24 162
24 160
24 108
24 109
24 113
24 112
24 111
24 106
24 105
24 166
24 183
24 185
24 184
26 25
28 25
30 25
32 25
34 25
36 25
38 25
25 35
25 33
25 31
25 29
25 27
26 27
26 29
26 31
26 33
26 35
26 37
26 39
26 114
26 116
26 117
26 115
26 41
26 43
26 47
26 49
26 118
26 119
26 120
26 121
26 123
26 122
26 125
26 126
26 124
26 127
26 51
26 52
26 128
26 131
26 53
26 132
26 130
26 129
26 141
26 45
26 140
26 134
26 138
26 137
26 139
26 136
26 133
26 135
26 54
26 65
26 71
26 70
26 69
26 72
26 73
26 88
26 66
26 67
26 95
26 94
26 92
26 91
26 90
26 93
26 89
26 96
26 75
26 78
26 77
26 87
26 86
26 82
26 84
26 97
26 76
26 81
26 83
26 80
26 85
26 79
26 98
26 99
26 44
26 57
26 56
26 58
26 100
26 60
26 59
26 62
26 64
26 63
26 61
26 55
26 142
26 150
26 152
26 151
26 42
26 104
26 103
26 46
26 149
26 102
26 28
26 30
26 34
26 36
26 38
26 48
26 50
26 110
26 101
26 40
26 68
26 74
26 169
26 168
26 171
26 172
26 170
26 175
26 177
26 176
26 174
26 178
26 173
26 182
26 181
26 180
26 167
26 179
26 153
26 155
26 154
26 156
26 157
26 158
26 107
26 159
26 161
26 163
26 165
26 164
26 162
26 160
26 108
26 109
26 113
26 112
26 111
26 106
26 105
26 166
28 27
30 27
32 27
34 27
36 27
38 27
27 37
27 35
27 33
27 31
27 29
28 29
28 31
28 33
28 35
28 37
28 39
28 114
28 116
28 117
28 115
28 41
28 43
28 47
28 49
28 118
28 119
28 120
28 121
28 123
28 122
28 125
28 126
28 124
28 127
28 51
28 52
28 128
28 131
28 53
28 132
28 130
28 129
28 141
28 45
28 140
28 134
28 138
28 137
28 139
28 136
28 133
28 135
28 54
28 65
28 71
28 70
28 69
28 72
28 73
28 88
28 66
28 67
28 95
28 94
28 92
28 91
28 90
28 93
28 89
28 96
28 75
28 78
28 77
28 87
28 86
28 82
28 84
28 97
28 76
28 81
28 83
28 80
28 85
28 79
28 98
28 99
28 44
28 57
28 56
28 58
28 100
28 60
28 59
28 62
28 64
28 63
28 61
28 55
28 142
28 150
28 152
28 151
28 42
28 104
28 103
28 46
28 149
28 102
28 30
28 34
28 36
28 38
28 48
28 50
28 110
28 101
28 40
28 68
28 74
28 170
28 175
28 177
28 176
28 174
28 178
28 173
28 182
28 181
28 180
28 167
28 179
28 153
28 155
28 154
28 156
28 157
28 158
28 107
28 159
28 161
28 163
28 165
28 164
28 162
28 160
28 108
28 109
28 113
28 112
28 111
28 106
28 105
28 166
30 29
32 29
34 29
36 29
38 29
29 114
29 37
29 35
29 33
29 31
30 31
30 33
30 35
30 37
30 39
30 114
30 116
30 117
30 115
30 41
30 43
30 47
30 49
30 118
30 119
30 120
30 121
30 123
30 122
30 125
30 126
30 124
30 127
30 51
30 52
30 128
30 131
30 53
30 132
30 130
30 129
30 141
30 45
30 140
30 134
30 138
30 137
30 139
30 136
30 133
30 135
30 54
30 65
30 71
30 70
30 69
30 72
30 73
30 88
30 66
30 67
30 95
30 94
30 92
30 91
30 90
30 93
30 89
30 96
30 75
30 78
30 77
30 87
30 86
30 82
30 84
30 97
30 76
30 81
30 83
30 80
30 85
30 79
30 98
30 99
30 44
30 57
30 56
30 58
30 100
30 60
30 59
30 62
30 64
30 63
30 61
30 55
30 142
30 150
30 152
30 151
30 42
30 104
30 103
30 46
30 149
30 102
30 34
30 36
30 38
30 48
30 50
30 110
30 101
30 40
30 68
30 74
30 182
30 181
30 180
30 167
30 179
30 153
30 155
30 154
30 156
30 157
30 158
30 107
30 159
30 161
30 163
30 165
30 164
30 162
30 160
30 108
30 109
30 113
30 112
30 111
30 106
30 105
30 166
32 31
34 31
36 31
38 31
31 116
31 114
31 37
31 35
31 33
32 33
32 35
32 37
32 114
32 116
32 117
32 115
32 43
32 47
32 49
32 118
32 119
32 120
32 121
32 123
32 122
32 125
32 126
32 124
32 127
32 51
32 143
32 52
32 128
32 131
32 53
32 132
32 130
32 129
32 141
32 45
32 140
32 134
32 138
32 137
32 139
32 136
32 133
32 135
32 54
32 65
32 71
32 70
32 69
32 72
32 73
32 88
32 66
32 67
32 95
32 94
32 92
32 91
32 90
32 93
32 89
32 96
32 75
32 78
32 77
32 87
32 86
32 82
32 84
32 97
32 76
32 81
32 83
32 80
32 85
32 79
32 145
32 98
32 99
32 44
32 57
32 56
32 58
32 100
32 60
32 59
32 62
32 64
32 63
32 61
32 55
32 146
32 142
32 150
32 152
32 147
32 151
32 42
32 104
32 103
32 148
32 46
32 149
32 102
32 144
32 183
32 185
32 184
32 101
32 156
32 154
32 155
32 153
32 68
32 74
32 40
32 166
32 179
32 167
32 48
32 50
34 33
36 33
38 33
33 117
33 116
33 114
33 37
33 35
34 35
34 37
34 39
34 114
34 116
34 117
34 115
34 41
34 43
34 47
34 49
34 118
34 119
34 120
34 121
34 123
34 122
34 125
34 126
34 124
34 127
34 51
34 52
34 128
34 131
34 53
34 132
34 130
34 129
34 141
34 45
34 140
34 134
34 138
34 137
34 139
34 136
34 133
34 135
34 54
34 65
34 71
34 70
34 69
34 72
34 73
34 88
34 66
34 67
34 95
34 94
34 92
34 91
34 90
34 93
34 89
34 96
34 75
34 78
34 77
34 87
34 86
34 82
34 84
34 97
34 76
34 81
34 83
34 80
34 85
34 79
34 98
34 99
34 44
34 57
34 56
34 58
34 100
34 60
34 59
34 62
34 64
34 63
34 61
34 55
34 142
34 150
34 152
34 151
34 42
34 104
34 103
34 46
34 149
34 102
34 36
34 38
34 48
34 50
34 110
34 101
34 40
34 68
34 74
34 167
34 179
34 153
34 155
34 154
34 156
34 157
34 158
34 107
34 159
34 161
34 163
34 165
34 164
34 162
34 160
34 108
34 109
34 113
34 112
34 111
34 106
34 105
34 166
36 35
38 35
35 115
35 117
35 116
35 114
35 37
36 37
36 39
36 114
36 116
36 117
36 115
36 41
36 43
36 47
36 49
36 118
36 119
36 120
36 121
36 123
36 122
36 125
36 126
36 124
36 127
36 51
36 52
36 128
36 131
36 53
36 132
36 130
36 129
36 141
36 45
36 140
36 134
36 138
36 137
36 139
36 136
36 133
36 135
36 54
36 65
36 71
36 70
36 69
36 72
36 73
36 88
36 66
36 67
36 95
36 94
36 92
36 91
36 90
36 93
36 89
36 96
36 75
36 78
36 77
36 87
36 86
36 82
36 84
36 97
36 76
36 81
36 83
36 80
36 85
36 79
36 98
36 99
36 44
36 57
36 56
36 58
36 100
36 60
36 59
36 62
36 64
36 63
36 61
36 55
36 142
36 150
36 152
36 151
36 42
36 104
36 103
36 46
36 149
36 102
36 38
36 48
36 50
36 110
36 101
36 40
36 68
36 74
36 153
36 155
36 154
36 156
36 157
36 158
36 107
36 159
36 161
36 163
36 165
36 164
36 162
36 160
36 108
36 109
36 113
36 112
36 111
36 106
36 105
36 166
38 37
37 115
37 117
37 116
37 114
38 39
38 114
38 116
38 117
38 115
38 41
38 43
38 47
38 49
38 118
38 119
38 120
38 121
38 123
38 122
38 125
38 126
38 124
38 127
38 51
38 52
38 128
38 131
38 53
38 132
38 130
38 129
38 141
38 45
38 140
38 134
38 138
38 137
38 139
38 136
38 133
38 135
38 54
38 65
38 71
38 70
38 69
38 72
38 73
38 88
38 66
38 67
38 95
38 94
38 92
38 91
38 90
38 93
38 89
38 96
38 75
38 78
38 77
38 87
38 86
38 82
38 84
38 97
38 76
38 81
38 83
38 80
38 85
38 79
38 98
38 99
38 44
38 57
38 56
38 58
38 100
38 60
38 59
38 62
38 64
38 63
38 61
38 55
38 142
38 150
38 152
38 151
38 42
38 104
38 103
38 46
38 149
38 102
38 48
38 50
38 110
38 101
38 40
38 68
38 74
38 153
38 155
38 154
38 156
38 157
38 158
38 107
38 159
38 161
38 163
38 165
38 164
38 162
38 160
38 108
38 109
38 113
38 112
38 111
38 106
38 105
38 166
40 39
40 41
40 42
40 46
40 105
40 106
40 108
43 42
47 42
49 42
51 42
52 42
53 42
45 42
54 42
65 42
66 42
67 42
96 42
78 42
97 42
98 42
99 42
100 42
48 42
50 42
101 42
68 42
74 42
42 102
42 46
42 103
42 104
43 44
43 46
43 45
43 58
43 56
43 57
43 55
43 61
43 54
43 63
43 64
43 62
43 59
43 60
45 44
54 44
44 58
44 56
44 57
44 55
44 61
44 63
44 64
44 62
44 59
44 60
45 46
45 58
45 56
45 57
45 55
45 61
45 54
45 63
45 64
45 62
45 59
45 60
47 46
49 46
51 46
52 46
53 46
54 46
65 46
66 46
67 46
96 46
78 46
97 46
98 46
99 46
100 46
48 46
50 46
101 46
68 46
74 46
46 102
48 47
50 47
47 49
48 49
48 50
50 49
51 52
51 53
52 53
54 55
54 61
54 64
54 63
54 62
54 56
56 55
62 55
61 55
57 56
56 58
56 61
56 63
56 64
56 62
56 59
56 60
58 59
58 60
62 61
63 61
62 63
62 64
64 63
66 67
68 67
74 67
67 75
67 79
67 85
67 78
67 80
67 83
67 81
67 76
67 84
67 82
67 86
67 87
67 77
67 96
67 89
67 93
67 90
67 91
67 92
67 94
67 95
68 69
68 73
68 88
68 95
68 94
68 92
68 91
68 90
68 93
68 89
68 96
68 75
68 78
68 77
68 87
68 86
68 82
68 84
68 76
68 81
68 83
68 80
68 85
68 79
68 74
70 69
74 69
69 88
69 73
69 72
69 75
69 81
69 76
69 84
69 82
69 86
69 87
69 77
69 89
69 93
69 90
69 91
69 92
69 94
69 95
71 70
70 72
72 73
74 73
73 88
73 75
73 86
73 87
73 77
73 89
73 93
73 90
73 91
73 92
73 94
73 95
74 75
74 78
74 77
74 87
74 86
74 82
74 84
74 76
74 81
74 83
74 80
74 85
74 79
75 76
75 84
75 82
75 86
75 87
75 77
77 76
82 76
78 77
77 79
77 85
77 80
77 83
77 81
77 84
77 82
77 86
77 87
78 79
78 85
78 83
78 80
80 79
81 80
83 80
80 85
82 81
81 83
82 83
82 84
88 89
88 93
88 90
88 91
88 92
88 94
88 95
90 89
91 90
90 93
92 91
97 98
97 99
98 99
107 106
108 109
110 109
109 112
109 113
109 111
110 111
110 112
112 111
114 115
114 117
114 116
116 115
117 115
116 117
119 120
120 121
121 122
121 123
123 122
123 124
123 126
123 125
125 124
125 126
128 129
128 130
128 132
128 131
128 135
128 133
128 136
128 139
128 137
128 138
128 134
128 140
128 141
130 129
129 140
129 141
131 130
132 130
130 133
130 136
130 139
130 137
130 138
130 134
130 140
130 141
131 132
134 133
139 133
136 133
133 135
134 135
134 136
134 139
134 137
134 138
136 135
137 136
139 136
138 137
137 139
138 139
143 142
144 142
145 142
146 142
142 149
142 151
142 152
142 150
144 143
143 145
143 146
143 147
143 148
143 150
143 152
143 151
143 149
144 145
144 146
144 150
144 152
144 147
144 151
144 148
144 149
145 146
145 147
145 148
145 150
145 152
145 151
145 149
146 147
146 148
146 150
146 152
146 151
146 149
147 148
147 151
147 149
148 149
150 149
152 149
151 149
150 151
150 152
152 151
153 154
153 155
155 154
157 158
159 160
159 162
159 164
159 165
159 163
159 161
161 160
163 160
165 160
164 160
162 160
161 162
161 164
161 165
161 163
163 162
165 162
164 162
163 164
163 165
165 164
168 167
170 167
174 167
178 167
167 179
169 168
168 170
168 172
168 171
168 173
168 178
168 174
168 176
168 177
168 175
168 179
168 180
168 181
168 182
171 170
172 170
170 173
170 178
170 174
170 176
170 177
170 175
170 179
170 180
170 181
170 182
171 172
174 173
178 173
173 180
173 181
175 174
177 174
176 174
174 178
174 179
174 180
174 181
175 176
175 177
177 176
176 178
177 178
178 179
178 180
178 181
183 184
183 185
185 184
187 186
190 189
194 189
197 189
201 189
189 199
189 200
190 191
190 194
190 195
190 192
190 193
190 198
190 196
190 199
190 200
190 201
190 197
190 202
190 203
192 191
195 191
194 191
191 202
191 203
193 192
192 194
192 195
193 194
193 195
195 194
194 196
194 199
194 200
194 201
194 197
194 202
194 203
197 196
200 196
199 196
196 198
197 198
197 199
197 200
197 201
199 198
200 199
201 200
204 10
204 32
204 144
204 143
204 145
204 146
204 147
204 148
204 205
204 210
204 211
204 212
204 213
204 206
204 207
204 208
204 142
204 209
204 150
204 152
204 151
204 149
204 183
204 185
204 184
204 102
204 46
204 103
204 104
204 42
204 0
204 101
204 4
204 43
204 45
204 44
204 58
204 56
204 57
204 55
204 61
204 54
204 63
204 64
204 62
204 59
204 60
204 188
204 67
204 156
204 154
204 155
204 153
204 1
204 88
204 73
204 72
204 69
204 70
204 71
204 68
204 74
204 118
204 97
204 98
204 128
204 129
204 130
204 132
204 131
204 99
204 135
204 133
204 136
204 139
204 137
204 138
204 134
204 140
204 141
204 127
204 124
204 126
204 125
204 122
204 123
204 121
204 120
204 119
204 40
204 166
204 11
204 9
204 7
204 5
204 3
204 100
204 115
204 117
204 116
204 114
204 37
204 35
204 33
204 31
204 29
204 27
204 25
204 23
204 21
204 17
204 15
204 13
204 158
204 157
204 105
204 41
204 107
204 106
204 39
204 19
204 112
204 113
204 109
204 108
204 111
204 110
204 160
204 162
204 164
204 165
204 163
204 161
204 159
204 75
204 79
204 85
204 78
204 80
204 83
204 81
204 76
204 84
204 82
204 86
204 87
204 77
204 96
204 89
204 93
204 90
204 91
204 92
204 94
204 95
204 169
204 170
204 172
204 171
204 168
204 173
204 178
204 174
204 176
204 177
204 175
204 179
204 66
204 167
204 180
204 181
204 182
204 186
204 65
204 187
204 51
204 52
204 190
204 191
204 194
204 195
204 192
204 193
204 53
204 198
204 196
204 199
204 200
204 189
204 201
204 197
204 202
204 203
204 48
204 47
204 49
204 50
204 2
205 210
205 211
205 212
205 213
205 206
205 207
205 208
205 142
205 209
205 150
205 152
205 151
205 149
205 183
205 185
205 184
205 163
205 165
205 164
205 162
205 160
205 2
206 213
206 210
206 211
206 212
206 207
206 208
206 142
206 209
206 150
206 152
206 151
206 149
206 183
206 185
206 184
206 4
206 46
206 42
206 0
206 67
206 2
207 213
207 210
207 211
207 212
207 0
207 208
207 142
207 209
207 150
207 152
207 151
207 149
207 183
207 185
207 184
207 46
207 42
207 67
207 163
207 165
207 164
207 162
207 160
207 161
207 2
208 213
208 210
208 211
208 212
208 2
208 10
208 18
208 20
208 22
208 24
208 26
208 28
208 30
208 32
208 34
208 36
208 38
208 143
208 145
208 146
208 144
208 149
208 151
208 152
208 150
208 209
208 142
209 213
209 210
209 211
209 212
209 2
209 10
209 22
209 24
209 26
209 28
209 30
209 32
209 34
209 36
209 38
209 143
209 144
209 145
209 146
209 149
209 142
209 151
209 152
209 150
210 213
210 4
210 0
210 2
210 67
210 142
210 150
210 152
210 151
210 42
210 46
210 149
210 211
210 212
210 183
210 185
210 184
211 213
211 4
211 0
211 2
211 67
211 142
211 150
211 152
211 151
211 42
211 46
211 149
211 153
211 155
211 154
211 183
211 185
211 212
211 184
212 213
212 4
212 0
212 2
212 67
212 142
212 150
212 152
212 151
212 42
212 46
212 149
212 153
212 155
212 154
212 183
212 185
212 184
213 142
213 150
213 152
213 151
213 149
213 183
213 185
213 184
213 4
213 46
213 42
213 0
213 67
213 2
